110  73  0.8322  5  35  109.8522  0.034            'P,CN,A,storm type,D,L,Y
                                             'Note:
Clay                             'Soil type
-1  0.8  0.6  -1                              'K, C factor, K factor, DP
  1                                          'IEROTY
  4                                        'OM
  10.5164                                      'Time (h) for mid storm point rescaled to 24h
   0  0
   0.5106  0.0054
   1.0213  0.0055
   2.0426  0.0054
   2.5532  0.0089
   3.0638  0.0202
   3.5745  0.043
   4.0851  0.0721
   4.5957  0.0867
   5.1064  0.0956
   5.617  0.1001
   6.1277  0.1
   6.6383  0.1039
   7.1489  0.1196
   7.6596  0.1438
   8.1702  0.1694
   8.6809  0.2522
   9.1915  0.4432
   9.7021  0.4689
   10.2128  0.4805
   10.7234  0.5133
   11.234  0.5186
   11.7447  0.5182
   12.2553  0.5209
   12.766  0.5269
   13.2766  0.543
   13.7872  0.5849
   14.2979  0.6295
   14.8085  0.635
   15.3191  0.6461
   15.8298  0.6799
   16.3404  0.7073
   16.8511  0.7261
   17.3617  0.8434
   17.8723  0.8662
   18.383  0.8673
   18.8936  0.8673
   23.4894  0.9973
   24  1
